243 5
10 10 10 10 10 

0 0 0 0 0 0 2 2 24 
0 0 0 0 0 0 3 3 14 22 
9 0 2 1 0 0 1 4 
8 0 3 7 0 0 2 12 5 
1 0 9 6 0 0 2 21 6 
10 0 6 3 0 0 1 7 
8 0 4 6 0 0 1 8 
5 0 7 6 0 0 2 20 9 
10 0 5 6 0 0 1 10 
2 0 4 3 0 0 1 11 
3 0 4 6 0 0 1 13 
10 0 3 6 0 0 1 13 
7 0 5 7 0 0 1 15 
10 0 1 3 0 0 1 15 
5 0 4 3 0 0 1 16 
9 0 8 6 0 0 1 17 
3 0 4 7 0 0 1 18 
1 0 5 9 0 0 1 19 
9 0 9 3 0 0 1 23 
4 0 3 4 0 0 1 23 
7 0 4 4 0 0 1 23 
1 0 10 4 0 0 1 23 
0 0 0 0 0 0 1 72 
0 0 0 0 0 0 2 25 29 
3 1 0 0 0 0 2 34 26 
2 5 0 0 0 0 1 27 
3 9 0 0 0 0 1 28 
6 6 0 0 0 0 1 30 
1 5 0 0 0 0 1 30 
3 5 0 0 0 0 2 33 31 
2 3 0 0 0 0 1 32 
8 9 0 0 0 0 1 35 
6 4 0 0 0 0 1 35 
5 3 0 0 0 0 1 35 
0 0 0 0 0 0 3 36 48 60 
0 0 0 0 0 0 2 37 38 
2 0 1 0 0 0 2 42 39 
6 0 3 0 0 0 3 42 41 40 
1 0 8 0 0 0 2 41 40 
4 0 4 0 0 0 1 43 
7 0 6 0 0 0 1 43 
8 0 7 0 0 0 1 43 
2 0 5 0 0 0 1 44 
5 0 5 0 0 0 1 45 
6 0 3 0 0 0 1 46 
6 0 8 0 0 0 1 47 
0 0 0 0 0 0 1 72 
0 0 0 0 0 0 1 49 
8 0 0 0 1 0 2 53 50 
2 0 0 0 2 0 1 51 
9 0 0 0 6 0 1 52 
1 0 0 0 7 0 2 57 54 
5 0 0 0 5 0 2 58 54 
8 0 0 0 4 0 1 55 
4 0 0 0 8 0 1 56 
1 0 0 0 8 0 1 59 
7 0 0 0 4 0 1 59 
10 0 0 0 5 0 1 59 
0 0 0 0 0 0 1 72 
0 0 0 0 0 0 1 61 
4 1 0 0 0 0 2 64 62 
9 3 0 0 0 0 1 63 
6 4 0 0 0 0 2 67 65 
7 10 0 0 0 0 2 70 65 
9 6 0 0 0 0 1 66 
5 2 0 0 0 0 1 68 
2 8 0 0 0 0 1 68 
4 6 0 0 0 0 1 69 
9 6 0 0 0 0 1 71 
2 4 0 0 0 0 1 71 
0 0 0 0 0 0 1 72 
0 0 0 0 0 0 4 73 85 97 109 
0 0 0 0 0 0 2 74 77 
2 0 0 0 0 1 2 83 75 
8 0 0 0 0 7 1 76 
1 0 0 0 0 4 2 82 78 
4 0 0 0 0 5 3 83 82 81 
8 0 0 0 0 9 1 79 
7 0 0 0 0 4 1 80 
9 0 0 0 0 5 1 81 
9 0 0 0 0 5 1 84 
9 0 0 0 0 6 1 84 
10 0 0 0 0 4 1 84 
0 0 0 0 0 0 1 121 
0 0 0 0 0 0 2 86 89 
5 1 0 0 0 0 2 93 87 
5 4 0 0 0 0 1 88 
3 7 0 0 0 0 2 95 90 
8 9 0 0 0 0 3 95 93 92 
1 6 0 0 0 0 1 91 
2 3 0 0 0 0 1 92 
3 5 0 0 0 0 1 94 
9 3 0 0 0 0 1 94 
1 4 0 0 0 0 1 96 
8 8 0 0 0 0 1 96 
0 0 0 0 0 0 1 121 
0 0 0 0 0 0 3 98 101 107 
9 0 0 0 1 0 2 106 99 
7 0 0 0 10 0 1 100 
1 0 0 0 9 0 1 102 
5 0 0 0 3 0 1 102 
2 0 0 0 3 0 1 103 
8 0 0 0 8 0 1 104 
6 0 0 0 5 0 1 105 
5 0 0 0 2 0 1 108 
2 0 0 0 4 0 1 108 
3 0 0 0 5 0 1 108 
0 0 0 0 0 0 1 121 
0 0 0 0 0 0 1 110 
2 0 0 1 0 0 1 111 
8 0 0 6 0 0 1 112 
4 0 0 4 0 0 2 116 113 
3 0 0 4 0 0 3 119 118 114 
8 0 0 8 0 0 1 115 
4 0 0 5 0 0 1 117 
9 0 0 5 0 0 1 118 
5 0 0 7 0 0 1 120 
10 0 0 2 0 0 1 120 
2 0 0 8 0 0 1 120 
0 0 0 0 0 0 1 121 
0 0 0 0 0 0 5 122 134 146 158 170 
0 0 0 0 0 0 2 123 124 
7 1 0 0 0 0 2 128 125 
4 5 0 0 0 0 2 128 127 
9 8 0 0 0 0 1 126 
4 5 0 0 0 0 1 127 
4 8 0 0 0 0 2 132 129 
1 8 0 0 0 0 2 132 130 
4 4 0 0 0 0 1 130 
4 4 0 0 0 0 1 131 
1 5 0 0 0 0 1 133 
9 2 0 0 0 0 1 133 
0 0 0 0 0 0 1 182 
0 0 0 0 0 0 2 135 144 
6 0 0 0 0 4 1 136 
6 0 0 0 0 1 1 137 
3 0 0 0 0 7 2 141 138 
10 0 0 0 0 10 1 139 
4 0 0 0 0 4 1 140 
3 0 0 0 0 7 1 142 
10 0 0 0 0 6 1 143 
7 0 0 0 0 3 1 145 
10 0 0 0 0 4 1 145 
8 0 0 0 0 4 1 145 
0 0 0 0 0 0 1 182 
0 0 0 0 0 0 2 147 149 
1 0 0 0 0 1 2 153 148 
4 0 0 0 0 6 1 150 
8 0 0 0 0 9 2 153 152 
8 0 0 0 0 3 1 151 
2 0 0 0 0 3 1 152 
7 0 0 0 0 5 2 156 154 
4 0 0 0 0 4 2 156 155 
10 0 0 0 0 5 1 155 
10 0 0 0 0 7 1 157 
2 0 0 0 0 7 1 157 
0 0 0 0 0 0 1 182 
0 0 0 0 0 0 1 159 
3 1 0 0 0 0 1 160 
10 5 0 0 0 0 1 161 
7 6 0 0 0 0 2 164 162 
1 7 0 0 0 0 1 163 
7 8 0 0 0 0 2 166 165 
1 2 0 0 0 0 1 165 
3 8 0 0 0 0 2 168 167 
4 5 0 0 0 0 1 167 
8 3 0 0 0 0 1 169 
6 5 0 0 0 0 1 169 
0 0 0 0 0 0 1 182 
0 0 0 0 0 0 3 171 172 175 
2 3 0 0 0 0 1 173 
2 2 0 0 0 0 1 173 
2 4 0 0 0 0 2 180 174 
3 5 0 0 0 0 1 176 
9 10 0 0 0 0 2 180 178 
7 3 0 0 0 0 1 177 
8 6 0 0 0 0 1 178 
2 6 0 0 0 0 1 179 
8 4 0 0 0 0 1 181 
7 7 0 0 0 0 1 181 
0 0 0 0 0 0 1 182 
0 0 0 0 0 0 5 183 195 207 219 231 
0 0 0 0 0 0 1 184 
2 1 0 0 0 0 2 186 185 
6 8 0 0 0 0 2 193 187 
7 6 0 0 0 0 1 187 
9 3 0 0 0 0 2 190 188 
7 5 0 0 0 0 1 189 
3 5 0 0 0 0 1 191 
2 4 0 0 0 0 1 191 
6 7 0 0 0 0 1 192 
9 3 0 0 0 0 1 194 
9 8 0 0 0 0 1 194 
0 0 0 0 0 0 1 243 
0 0 0 0 0 0 2 196 198 
9 0 0 1 0 0 1 197 
5 0 0 2 0 0 2 205 199 
8 0 0 4 0 0 2 201 200 
2 0 0 9 0 0 1 200 
3 0 0 7 0 0 1 202 
10 0 0 4 0 0 1 202 
10 0 0 3 0 0 1 203 
2 0 0 7 0 0 1 204 
7 0 0 6 0 0 1 206 
7 0 0 7 0 0 1 206 
0 0 0 0 0 0 1 243 
0 0 0 0 0 0 1 208 
10 0 1 0 0 0 2 214 209 
4 0 6 0 0 0 1 210 
5 0 2 0 0 0 2 217 211 
4 0 5 0 0 0 2 216 212 
10 0 9 0 0 0 1 213 
5 0 5 0 0 0 1 215 
9 0 5 0 0 0 1 216 
5 0 3 0 0 0 1 218 
10 0 4 0 0 0 1 218 
10 0 10 0 0 0 1 218 
0 0 0 0 0 0 1 243 
0 0 0 0 0 0 1 220 
2 0 0 0 1 0 1 221 
3 0 0 0 4 0 1 222 
3 0 0 0 6 0 2 224 223 
3 0 0 0 4 0 1 226 
10 0 0 0 10 0 1 225 
7 0 0 0 3 0 2 229 227 
8 0 0 0 4 0 2 229 227 
6 0 0 0 6 0 1 228 
4 0 0 0 7 0 1 230 
3 0 0 0 5 0 1 230 
0 0 0 0 0 0 1 243 
0 0 0 0 0 0 1 232 
3 0 0 0 0 1 2 234 233 
1 0 0 0 0 7 1 235 
9 0 0 0 0 4 1 235 
3 0 0 0 0 5 1 236 
3 0 0 0 0 4 1 237 
5 0 0 0 0 10 2 239 238 
4 0 0 0 0 3 2 241 240 
3 0 0 0 0 4 1 240 
3 0 0 0 0 6 1 242 
9 0 0 0 0 6 1 242 
0 0 0 0 0 0 1 243 
0 0 0 0 0 0 0 
